30
1 0 50
2 0 70
2 1 81
3 0 97
3 1 20
3 2 53
4 0 29
4 1 62
4 2 25
4 3 80
5 0 91
5 1 94
5 2 42
5 3 68
5 4 53
6 0 79
6 1 76
6 2 95
6 3 7
6 4 72
6 5 67
7 0 27
7 1 100
7 2 55
7 3 46
7 4 27
7 5 88
7 6 81
8 0 99
8 1 82
8 2 33
8 3 92
8 4 24
8 5 99
8 6 61
8 7 46
9 0 70
9 1 69
9 2 74
9 3 1
9 4 8
9 5 9
9 6 92
9 7 12
9 8 75
10 0 10
10 1 41
10 2 73
10 3 75
10 4 54
10 5 46
10 6 93
10 7 48
10 8 2
10 9 80
11 0 80
11 1 23
11 2 35
11 3 67
11 4 91
11 5 28
11 6 17
11 7 60
11 8 59
11 9 22
11 10 15
12 0 33
12 1 11
12 2 62
12 3 77
12 4 58
12 5 30
12 6 34
12 7 74
12 8 48
12 9 40
12 10 100
12 11 47
13 0 6
13 1 97
13 2 44
13 3 7
13 4 97
13 5 33
13 6 25
13 7 100
13 8 32
13 9 81
13 10 57
13 11 15
13 12 40
14 0 61
14 1 80
14 2 4
14 3 59
14 4 39
14 5 5
14 6 49
14 7 77
14 8 60
14 9 25
14 10 78
14 11 1
14 12 17
14 13 31
15 0 41
15 1 40
15 2 41
15 3 92
15 4 67
15 5 17
15 6 78
15 7 70
15 8 89
15 9 66
15 10 15
15 11 76
15 12 93
15 13 60
15 14 73
16 0 9
16 1 32
16 2 89
16 3 64
16 4 14
16 5 21
16 6 81
16 7 91
16 8 55
16 9 75
16 10 22
16 11 30
16 12 3
16 13 99
16 14 40
16 15 40
17 0 66
17 1 3
17 2 48
17 3 60
17 4 15
17 5 19
17 6 57
17 7 17
17 8 100
17 9 48
17 10 6
17 11 52
17 12 39
17 13 47
17 14 78
17 15 7
17 16 29
18 0 49
18 1 92
18 2 73
18 3 24
18 4 72
18 5 86
18 6 64
18 7 63
18 8 55
18 9 43
18 10 72
18 11 54
18 12 31
18 13 13
18 14 28
18 15 42
18 16 29
18 17 43
19 0 58
19 1 16
19 2 52
19 3 7
19 4 26
19 5 41
19 6 92
19 7 10
19 8 87
19 9 8
19 10 64
19 11 1
19 12 5
19 13 43
19 14 69
19 15 12
19 16 1
19 17 31
19 18 34
20 0 31
20 1 43
20 2 20
20 3 74
20 4 49
20 5 82
20 6 30
20 7 72
20 8 59
20 9 5
20 10 82
20 11 94
20 12 79
20 13 61
20 14 13
20 15 55
20 16 47
20 17 71
20 18 44
20 19 22
21 0 2
21 1 35
21 2 20
21 3 23
21 4 34
21 5 100
21 6 47
21 7 79
21 8 90
21 9 43
21 10 74
21 11 97
21 12 59
21 13 85
21 14 10
21 15 85
21 16 75
21 17 51
21 18 76
21 19 68
21 20 98
22 0 29
22 1 27
22 2 28
22 3 82
22 4 93
22 5 87
22 6 1
22 7 37
22 8 10
22 9 95
22 10 77
22 11 24
22 12 21
22 13 49
22 14 19
22 15 63
22 16 84
22 17 95
22 18 85
22 19 34
22 20 15
22 21 99
23 0 100
23 1 97
23 2 62
23 3 96
23 4 48
23 5 69
23 6 1
23 7 18
23 8 48
23 9 30
23 10 29
23 11 18
23 12 53
23 13 42
23 14 21
23 15 72
23 16 84
23 17 12
23 18 37
23 19 9
23 20 73
23 21 30
23 22 22
24 0 94
24 1 6
24 2 49
24 3 38
24 4 91
24 5 58
24 6 13
24 7 95
24 8 50
24 9 78
24 10 38
24 11 100
24 12 17
24 13 71
24 14 87
24 15 24
24 16 50
24 17 74
24 18 21
24 19 54
24 20 94
24 21 23
24 22 1
24 23 94
25 0 47
25 1 61
25 2 74
25 3 21
25 4 18
25 5 46
25 6 74
25 7 9
25 8 71
25 9 36
25 10 12
25 11 82
25 12 79
25 13 72
25 14 44
25 15 63
25 16 62
25 17 96
25 18 38
25 19 20
25 20 71
25 21 52
25 22 82
25 23 27
25 24 32
26 0 74
26 1 97
26 2 3
26 3 78
26 4 65
26 5 47
26 6 85
26 7 23
26 8 94
26 9 78
26 10 46
26 11 64
26 12 88
26 13 4
26 14 84
26 15 2
26 16 98
26 17 28
26 18 10
26 19 35
26 20 45
26 21 81
26 22 44
26 23 48
26 24 96
26 25 2
27 0 79
27 1 13
27 2 14
27 3 94
27 4 71
27 5 73
27 6 86
27 7 30
27 8 75
27 9 69
27 10 23
27 11 4
27 12 29
27 13 39
27 14 88
27 15 29
27 16 54
27 17 84
27 18 93
27 19 51
27 20 24
27 21 9
27 22 63
27 23 17
27 24 34
27 25 56
27 26 79
28 0 13
28 1 46
28 2 93
28 3 34
28 4 78
28 5 12
28 6 39
28 7 55
28 8 39
28 9 9
28 10 27
28 11 96
28 12 35
28 13 5
28 14 36
28 15 94
28 16 19
28 17 67
28 18 48
28 19 35
28 20 66
28 21 81
28 22 8
28 23 93
28 24 17
28 25 22
28 26 100
28 27 20
29 0 32
29 1 22
29 2 51
29 3 1
29 4 46
29 5 1
29 6 42
29 7 19
29 8 46
29 9 70
29 10 84
29 11 79
29 12 6
29 13 31
29 14 82
29 15 83
29 16 53
29 17 4
29 18 2
29 19 70
29 20 57
29 21 85
29 22 10
29 23 50
29 24 57
29 25 3
29 26 46
29 27 4
29 28 71
